p cnf 1 4 
c Created by Sudoku Dimacs Creator 
c Adding random values for first row, first column and main diagonal
c There is at most one number in each cell
c There is at least one number in each cell
111 0 
c Each number appears at most once in each row
c Each number appears at least once in each row
111 0 
c Each number appears at most once in each column
c Each number appears at least once in each column
111 0 
c Each number appears at most once in each 1*1 sub-matrix
c Each number appears at least once in each 1*1 sub-matrix
111 0 
